language Essence 1.3

letting codeWordLength be 27
letting dist be
        function((1, 1) --> 0, (1, 2) --> 17, (1, 3) --> 13, (1, 4) --> 12, (1, 5) --> 2, (1, 6) --> 6, (1, 7) --> 0,
                 (1, 8) --> 16, (1, 9) --> 6, (1, 10) --> 3, (1, 11) --> 14, (1, 12) --> 11, (1, 13) --> 13,
                 (1, 14) --> 16, (1, 15) --> 4, (1, 16) --> 1, (1, 17) --> 23, (1, 18) --> 20, (2, 1) --> 17,
                 (2, 2) --> 0, (2, 3) --> 17, (2, 4) --> 6, (2, 5) --> 1, (2, 6) --> 14, (2, 7) --> 13, (2, 8) --> 7,
                 (2, 9) --> 15, (2, 10) --> 9, (2, 11) --> 14, (2, 12) --> 1, (2, 13) --> 24, (2, 14) --> 24,
                 (2, 15) --> 1, (2, 16) --> 16, (2, 17) --> 24, (2, 18) --> 7, (3, 1) --> 13, (3, 2) --> 17,
                 (3, 3) --> 0, (3, 4) --> 22, (3, 5) --> 10, (3, 6) --> 19, (3, 7) --> 8, (3, 8) --> 15, (3, 9) --> 4,
                 (3, 10) --> 23, (3, 11) --> 13, (3, 12) --> 14, (3, 13) --> 0, (3, 14) --> 7, (3, 15) --> 7,
                 (3, 16) --> 21, (3, 17) --> 15, (3, 18) --> 7, (4, 1) --> 12, (4, 2) --> 6, (4, 3) --> 22,
                 (4, 4) --> 0, (4, 5) --> 22, (4, 6) --> 21, (4, 7) --> 11, (4, 8) --> 1, (4, 9) --> 8, (4, 10) --> 10,
                 (4, 11) --> 2, (4, 12) --> 17, (4, 13) --> 2, (4, 14) --> 23, (4, 15) --> 1, (4, 16) --> 25,
                 (4, 17) --> 8, (4, 18) --> 24, (5, 1) --> 2, (5, 2) --> 1, (5, 3) --> 10, (5, 4) --> 22, (5, 5) --> 0,
                 (5, 6) --> 18, (5, 7) --> 5, (5, 8) --> 17, (5, 9) --> 3, (5, 10) --> 23, (5, 11) --> 17,
                 (5, 12) --> 9, (5, 13) --> 17, (5, 14) --> 14, (5, 15) --> 21, (5, 16) --> 1, (5, 17) --> 9,
                 (5, 18) --> 6, (6, 1) --> 6, (6, 2) --> 14, (6, 3) --> 19, (6, 4) --> 21, (6, 5) --> 18, (6, 6) --> 0,
                 (6, 7) --> 12, (6, 8) --> 4, (6, 9) --> 10, (6, 10) --> 24, (6, 11) --> 7, (6, 12) --> 11,
                 (6, 13) --> 15, (6, 14) --> 25, (6, 15) --> 12, (6, 16) --> 2, (6, 17) --> 25, (6, 18) --> 3,
                 (7, 1) --> 0, (7, 2) --> 13, (7, 3) --> 8, (7, 4) --> 11, (7, 5) --> 5, (7, 6) --> 12, (7, 7) --> 0,
                 (7, 8) --> 20, (7, 9) --> 2, (7, 10) --> 4, (7, 11) --> 23, (7, 12) --> 9, (7, 13) --> 15,
                 (7, 14) --> 3, (7, 15) --> 9, (7, 16) --> 10, (7, 17) --> 10, (7, 18) --> 8, (8, 1) --> 16,
                 (8, 2) --> 7, (8, 3) --> 15, (8, 4) --> 1, (8, 5) --> 17, (8, 6) --> 4, (8, 7) --> 20, (8, 8) --> 0,
                 (8, 9) --> 2, (8, 10) --> 19, (8, 11) --> 16, (8, 12) --> 22, (8, 13) --> 9, (8, 14) --> 19,
                 (8, 15) --> 10, (8, 16) --> 20, (8, 17) --> 15, (8, 18) --> 14, (9, 1) --> 6, (9, 2) --> 15,
                 (9, 3) --> 4, (9, 4) --> 8, (9, 5) --> 3, (9, 6) --> 10, (9, 7) --> 2, (9, 8) --> 2, (9, 9) --> 0,
                 (9, 10) --> 14, (9, 11) --> 20, (9, 12) --> 23, (9, 13) --> 19, (9, 14) --> 18, (9, 15) --> 19,
                 (9, 16) --> 21, (9, 17) --> 24, (9, 18) --> 0, (10, 1) --> 3, (10, 2) --> 9, (10, 3) --> 23,
                 (10, 4) --> 10, (10, 5) --> 23, (10, 6) --> 24, (10, 7) --> 4, (10, 8) --> 19, (10, 9) --> 14,
                 (10, 10) --> 0, (10, 11) --> 15, (10, 12) --> 12, (10, 13) --> 21, (10, 14) --> 3, (10, 15) --> 12,
                 (10, 16) --> 17, (10, 17) --> 17, (10, 18) --> 21, (11, 1) --> 14, (11, 2) --> 14, (11, 3) --> 13,
                 (11, 4) --> 2, (11, 5) --> 17, (11, 6) --> 7, (11, 7) --> 23, (11, 8) --> 16, (11, 9) --> 20,
                 (11, 10) --> 15, (11, 11) --> 0, (11, 12) --> 3, (11, 13) --> 6, (11, 14) --> 3, (11, 15) --> 11,
                 (11, 16) --> 4, (11, 17) --> 6, (11, 18) --> 3, (12, 1) --> 11, (12, 2) --> 1, (12, 3) --> 14,
                 (12, 4) --> 17, (12, 5) --> 9, (12, 6) --> 11, (12, 7) --> 9, (12, 8) --> 22, (12, 9) --> 23,
                 (12, 10) --> 12, (12, 11) --> 3, (12, 12) --> 0, (12, 13) --> 19, (12, 14) --> 13, (12, 15) --> 6,
                 (12, 16) --> 0, (12, 17) --> 4, (12, 18) --> 4, (13, 1) --> 13, (13, 2) --> 24, (13, 3) --> 0,
                 (13, 4) --> 2, (13, 5) --> 17, (13, 6) --> 15, (13, 7) --> 15, (13, 8) --> 9, (13, 9) --> 19,
                 (13, 10) --> 21, (13, 11) --> 6, (13, 12) --> 19, (13, 13) --> 0, (13, 14) --> 5, (13, 15) --> 17,
                 (13, 16) --> 14, (13, 17) --> 8, (13, 18) --> 16, (14, 1) --> 16, (14, 2) --> 24, (14, 3) --> 7,
                 (14, 4) --> 23, (14, 5) --> 14, (14, 6) --> 25, (14, 7) --> 3, (14, 8) --> 19, (14, 9) --> 18,
                 (14, 10) --> 3, (14, 11) --> 3, (14, 12) --> 13, (14, 13) --> 5, (14, 14) --> 0, (14, 15) --> 13,
                 (14, 16) --> 4, (14, 17) --> 12, (14, 18) --> 6, (15, 1) --> 4, (15, 2) --> 1, (15, 3) --> 7,
                 (15, 4) --> 1, (15, 5) --> 21, (15, 6) --> 12, (15, 7) --> 9, (15, 8) --> 10, (15, 9) --> 19,
                 (15, 10) --> 12, (15, 11) --> 11, (15, 12) --> 6, (15, 13) --> 17, (15, 14) --> 13, (15, 15) --> 0,
                 (15, 16) --> 25, (15, 17) --> 12, (15, 18) --> 4, (16, 1) --> 1, (16, 2) --> 16, (16, 3) --> 21,
                 (16, 4) --> 25, (16, 5) --> 1, (16, 6) --> 2, (16, 7) --> 10, (16, 8) --> 20, (16, 9) --> 21,
                 (16, 10) --> 17, (16, 11) --> 4, (16, 12) --> 0, (16, 13) --> 14, (16, 14) --> 4, (16, 15) --> 25,
                 (16, 16) --> 0, (16, 17) --> 10, (16, 18) --> 4, (17, 1) --> 23, (17, 2) --> 24, (17, 3) --> 15,
                 (17, 4) --> 8, (17, 5) --> 9, (17, 6) --> 25, (17, 7) --> 10, (17, 8) --> 15, (17, 9) --> 24,
                 (17, 10) --> 17, (17, 11) --> 6, (17, 12) --> 4, (17, 13) --> 8, (17, 14) --> 12, (17, 15) --> 12,
                 (17, 16) --> 10, (17, 17) --> 0, (17, 18) --> 18, (18, 1) --> 20, (18, 2) --> 7, (18, 3) --> 7,
                 (18, 4) --> 24, (18, 5) --> 6, (18, 6) --> 3, (18, 7) --> 8, (18, 8) --> 14, (18, 9) --> 0,
                 (18, 10) --> 21, (18, 11) --> 3, (18, 12) --> 4, (18, 13) --> 16, (18, 14) --> 6, (18, 15) --> 4,
                 (18, 16) --> 4, (18, 17) --> 18, (18, 18) --> 0)
letting maxDist be 40
letting minDist be 211
letting nbCharacter be 18
letting numOfCodeWords be 7
